
Log started (V12.10.0.0) Fri Apr  9 00:22:18 2021


Problem 'asset.lp' read.
Read time = 0.00 sec. (0.08 ticks)
New value for default parallel thread count: 1
New value for time limit in seconds: 200
Version identifier: 12.10.0.0 | 2019-11-26 | 843d4de
CPXPARAM_Threads                                 1
CPXPARAM_TimeLimit                               200
Found incumbent of value -0.887146 after 0.00 sec. (0.04 ticks)
Tried aggregator 4 times.
MIP Presolve eliminated 485 rows and 352 columns.
MIP Presolve modified 851 coefficients.
Aggregator did 156 substitutions.
Reduced MIP has 236 rows, 252 columns, and 941 nonzeros.
Reduced MIP has 192 binaries, 42 generals, 0 SOSs, and 0 indicators.
Presolve time = 0.01 sec. (2.88 ticks)
Probing fixed 53 vars, tightened 20 bounds.
Probing time = 0.00 sec. (0.47 ticks)
Cover probing fixed 0 vars, tightened 29 bounds.
Tried aggregator 2 times.
MIP Presolve eliminated 120 rows and 114 columns.
MIP Presolve modified 27 coefficients.
Aggregator did 1 substitutions.
Reduced MIP has 115 rows, 132 columns, and 382 nonzeros.
Reduced MIP has 103 binaries, 12 generals, 0 SOSs, and 0 indicators.
Presolve time = 0.00 sec. (0.77 ticks)
Probing time = 0.00 sec. (0.18 ticks)
Tried aggregator 1 time.
Detecting symmetries...
MIP Presolve modified 8 coefficients.
Reduced MIP has 115 rows, 132 columns, and 382 nonzeros.
Reduced MIP has 103 binaries, 12 generals, 0 SOSs, and 0 indicators.
Presolve time = 0.00 sec. (0.26 ticks)
Probing time = 0.00 sec. (0.17 ticks)
Clique table members: 351.
MIP emphasis: balance optimality and feasibility.
MIP search method: dynamic search.
Parallel mode: none, using 1 thread.
Root relaxation solution time = 0.00 sec. (0.57 ticks)

        Nodes                                         Cuts/
   Node  Left     Objective  IInf  Best Integer    Best Bound    ItCnt     Gap

*     0+    0                           -0.8871      266.0195              --- 
      0     0      126.1260    35       -0.8871      126.1260       83     --- 
*     0+    0                          113.8049      126.1260            10.83%
      0     0      120.0529    35      113.8049      Cuts: 61      117    5.49%
      0     0      116.8940    35      113.8049      Cuts: 36      129    2.71%
*     0+    0                          113.8058      116.8940             2.71%
      0     0        cutoff            113.8058      116.8940      129    2.71%
Detecting symmetries...

Repeating presolve.
Tried aggregator 2 times.
MIP Presolve eliminated 48 rows and 57 columns.
MIP Presolve modified 12 coefficients.
Aggregator did 8 substitutions.
Reduced MIP has 59 rows, 67 columns, and 179 nonzeros.
Reduced MIP has 51 binaries, 6 generals, 0 SOSs, and 0 indicators.
Presolve time = 0.00 sec. (0.24 ticks)
Probing fixed 5 vars, tightened 3 bounds.
Probing time = 0.00 sec. (0.05 ticks)
Cover probing fixed 0 vars, tightened 3 bounds.
Tried aggregator 1 time.
MIP Presolve eliminated 19 rows and 17 columns.
MIP Presolve modified 16 coefficients.
Reduced MIP has 40 rows, 50 columns, and 129 nonzeros.
Reduced MIP has 39 binaries, 4 generals, 0 SOSs, and 0 indicators.
Presolve time = 0.00 sec. (0.12 ticks)
Probing time = 0.00 sec. (0.03 ticks)
Tried aggregator 1 time.
Detecting symmetries...
Reduced MIP has 40 rows, 50 columns, and 129 nonzeros.
Reduced MIP has 39 binaries, 4 generals, 0 SOSs, and 0 indicators.
Presolve time = 0.00 sec. (0.09 ticks)
Represolve time = 0.00 sec. (2.92 ticks)
Probing time = 0.00 sec. (0.03 ticks)
Clique table members: 25.
MIP emphasis: balance optimality and feasibility.
MIP search method: dynamic search.
Parallel mode: none, using 1 thread.
Root relaxation solution time = 0.00 sec. (0.21 ticks)

        Nodes                                         Cuts/
   Node  Left     Objective  IInf  Best Integer    Best Bound    ItCnt     Gap

*     0+    0                          113.8058      116.8940             2.71%
      0     0      116.3813     9      113.8058      116.3813      155    2.26%
*     0+    0                          114.9181      116.3813             1.27%

Implied bound cuts applied:  6
Flow cuts applied:  1
Mixed integer rounding cuts applied:  3
Zero-half cuts applied:  1
Lift and project cuts applied:  1
Gomory fractional cuts applied:  6

Root node processing (before b&c):
  Real time             =    0.02 sec. (14.86 ticks)
Sequential b&c:
  Real time             =    0.00 sec. (0.00 ticks)
                          ------------
Total (root+branch&cut) =    0.02 sec. (14.86 ticks)

Solution pool: 4 solutions saved.

MIP - Integer optimal, tolerance (0.0001/1e-06):  Objective =  1.1491805355e+02
Current MIP best bound =  1.1492003030e+02 (gap = 0.00197674, 0.00%)
Solution time =    0.02 sec.  Iterations = 161  Nodes = 0 (1)
Deterministic time = 14.86 ticks  (595.02 ticks/sec)


Incumbent solution
Variable Name           Solution Value
F                           125.000000
f1                            0.901946
f2                            9.180000
y93                           1.000000
y53                           1.000000
y143                          1.000000
y132                          1.000000
y27                           1.000000
y70                           1.000000
y169                          1.000000
s3                            6.000000
s9                            6.000000
s21                           6.000000
s22                           6.000000
s25                           6.000000
s51                           6.000000
s56                           6.000000
s58                           6.000000
s64                           6.000000
s90                           6.000000
s93                           6.340725
s130                          6.000000
s147                          6.000000
s149                          6.000000
s150                          6.000000
s173                          6.000000
s189                          6.000000
s176                          6.020000
s75                           6.050000
s171                          6.090000
s68                           6.200000
s46                           6.220000
s105                          6.220000
s81                           6.370000
s53                           7.343692
s143                          6.544589
s54                           6.630000
s79                           6.670000
s132                          7.421832
s27                           6.981251
s69                           6.780000
s70                           7.378878
s169                          7.774110
s168                          7.000000
x19x132x1                     1.000000
x19x27x1                      1.000000
x5x53x1                       1.000000
x5x132x1                      1.000000
x76x93x2                      1.000000
x32x53x2                      1.000000
x32x70x2                      1.000000
x134x70x2                     1.000000
x52x143x3                     2.000000
x55x27x3                      1.000000
x76x93x3                      1.000000
x134x169x3                    1.000000
x93x169x2                     1.000000
x93x0x3                       1.000000
x53x0x1                       1.000000
x53x0x2                       1.000000
x143x0x3                      2.000000
x132x0x1                      2.000000
x27x0x1                       1.000000
x27x0x3                       1.000000
x70x0x2                       2.000000
x169x0x2                      1.000000
x169x0x3                      1.000000
s52                           4.790097
z52z143z3                     1.000000
s19                           5.015915
z19z132z1                     1.000000
z19z27z1                      1.000000
z19z168z1                     1.000000
s5                            5.147550
z5z53z1                       1.000000
z5z132z1                      1.000000
s55                           5.096229
z55z27z3                      1.000000
s76                           5.041702
z76z93z2                      1.000000
z76z93z3                      1.000000
z76z54z2                      1.000000
z76z69z2                      1.000000
z76z70z2                      1.000000
s32                           5.856528
z32z53z2                      1.000000
z32z70z2                      1.000000
s134                          5.790000
z134z70z2                     1.000000
z134z169z3                    1.000000
z93z169z2                     1.000000
All other variables in the range 1-762 are 0.
